#######################################
### Exact MIP solver for the HHCRSP ###
#######################################
-- Instance file: new-instances/HHCRSP_200_40_2_1.6_C_C.txt
-- Max threads: 4
-- Time limit: 999999 seconds
-- Use initial solution: No
Trivial flow violations prevented generating 364049 variables.
Version identifier: 20.1.0.0 | 2020-11-10 | 9bedb6d68
CPXPARAM_Threads                                 4
CPXPARAM_TimeLimit                               999999
Parallel mode: deterministic, using up to 4 threads for concurrent optimization:
 * Starting dual Simplex on 1 thread...
 * Starting Barrier on 3 threads...
Tried aggregator 1 time.
LP Presolve eliminated 21684 rows and 4950 columns.
Reduced LP has 397688 rows, 377811 columns, and 7003834 nonzeros.
Presolve time = 15.38 sec. (1618.17 ticks)
Symmetry aggregator did 589121 additional substitutions.

Iteration log . . .
Iteration:     1   Dual objective     =             0.000000
Iteration:   939   Dual objective     =           191.333333

Dual crossover.
  Dual:  Fixing 965 variables.
      964 DMoves:  Infeasibility  1.28913547e-12  Objective  1.94666667e+02
        0 DMoves:  Infeasibility  6.29246656e-13  Objective  1.94666667e+02
  Dual:  Pushed 24, exchanged 941.
  Primal:  Fixing 435 variables.
      434 PMoves:  Infeasibility  1.66533454e-16  Objective  1.94666667e+02
        0 PMoves:  Infeasibility  3.60822483e-16  Objective  1.94666667e+02
  Primal:  Pushed 345, exchanged 90.

Dual simplex solved model.


Solution status from MIP model:
-- Processing time: 25.445 sec.
-- Memory used: 416.257 MB
-- Best bound: inf
-- Obj value: 194.667
-- Gap: inf%
-- Total distance: 584
-- Total tardiness: 0
-- Largest tardiness: 0
